
;this file is automatically generated: Wed Apr 21 11:03:31 CST 2021

;declarations generated

(declare-fun type_d5c6e0d9_31ba_4409_9bbf_471eaf72ff81_Class43 ( Int) Bool)
(declare-fun type_d5c6e0d9_31ba_4409_9bbf_471eaf72ff81_Class44 ( Int) Bool)
(declare-fun type_d5c6e0d9_31ba_4409_9bbf_471eaf72ff81_Class45 ( Int) Bool)
(declare-fun type_d5c6e0d9_31ba_4409_9bbf_471eaf72ff81_Class46 ( Int) Bool)
(declare-fun type_d5c6e0d9_31ba_4409_9bbf_471eaf72ff81_Class47 ( Int) Bool)
(declare-fun type_d5c6e0d9_31ba_4409_9bbf_471eaf72ff81_Class48 ( Int) Bool)
(declare-fun type_d5c6e0d9_31ba_4409_9bbf_471eaf72ff81_Class49 ( Int) Bool)
(declare-fun type_d5c6e0d9_31ba_4409_9bbf_471eaf72ff81_Class40 ( Int) Bool)
(declare-fun type_d5c6e0d9_31ba_4409_9bbf_471eaf72ff81_Class41 ( Int) Bool)
(declare-fun type_d5c6e0d9_31ba_4409_9bbf_471eaf72ff81_Class42 ( Int) Bool)
(declare-fun type_d5c6e0d9_31ba_4409_9bbf_471eaf72ff81_Class32 ( Int) Bool)
(declare-fun type_d5c6e0d9_31ba_4409_9bbf_471eaf72ff81_Class33 ( Int) Bool)
(declare-fun type_d5c6e0d9_31ba_4409_9bbf_471eaf72ff81_Class34 ( Int) Bool)
(declare-fun type_d5c6e0d9_31ba_4409_9bbf_471eaf72ff81_Class35 ( Int) Bool)
(declare-fun type_d5c6e0d9_31ba_4409_9bbf_471eaf72ff81_Class36 ( Int) Bool)
(declare-fun type_d5c6e0d9_31ba_4409_9bbf_471eaf72ff81_Class37 ( Int) Bool)
(declare-fun type_d5c6e0d9_31ba_4409_9bbf_471eaf72ff81_Class38 ( Int) Bool)
(declare-fun type_d5c6e0d9_31ba_4409_9bbf_471eaf72ff81_Class39 ( Int) Bool)
(declare-fun oclExcludes ( Int Int) Bool)
(declare-fun type_d5c6e0d9_31ba_4409_9bbf_471eaf72ff81_Class30 ( Int) Bool)
(declare-fun type_d5c6e0d9_31ba_4409_9bbf_471eaf72ff81_Class31 ( Int) Bool)
(declare-fun type_d5c6e0d9_31ba_4409_9bbf_471eaf72ff81_Class29 ( Int) Bool)
(declare-fun type_d5c6e0d9_31ba_4409_9bbf_471eaf72ff81_Class21 ( Int) Bool)
(declare-fun type_d5c6e0d9_31ba_4409_9bbf_471eaf72ff81_Class22 ( Int) Bool)
(declare-fun type_d5c6e0d9_31ba_4409_9bbf_471eaf72ff81_Class23 ( Int) Bool)
(declare-fun type_d5c6e0d9_31ba_4409_9bbf_471eaf72ff81_Class24 ( Int) Bool)
(declare-fun type_d5c6e0d9_31ba_4409_9bbf_471eaf72ff81_Class25 ( Int) Bool)
(declare-fun type_d5c6e0d9_31ba_4409_9bbf_471eaf72ff81_Class26 ( Int) Bool)
(declare-fun type_d5c6e0d9_31ba_4409_9bbf_471eaf72ff81_Class27 ( Int) Bool)
(declare-fun type_d5c6e0d9_31ba_4409_9bbf_471eaf72ff81_Class28 ( Int) Bool)
(declare-fun type_d5c6e0d9_31ba_4409_9bbf_471eaf72ff81_Class20 ( Int) Bool)
(declare-fun type_d5c6e0d9_31ba_4409_9bbf_471eaf72ff81_Class18 ( Int) Bool)
(declare-fun type_d5c6e0d9_31ba_4409_9bbf_471eaf72ff81_Class19 ( Int) Bool)
(declare-fun type_d5c6e0d9_31ba_4409_9bbf_471eaf72ff81_Class10 ( Int) Bool)
(declare-fun type_d5c6e0d9_31ba_4409_9bbf_471eaf72ff81_Class11 ( Int) Bool)
(declare-fun type_d5c6e0d9_31ba_4409_9bbf_471eaf72ff81_Class12 ( Int) Bool)
(declare-fun type_d5c6e0d9_31ba_4409_9bbf_471eaf72ff81_Class13 ( Int) Bool)
(declare-fun type_d5c6e0d9_31ba_4409_9bbf_471eaf72ff81_Class14 ( Int) Bool)
(declare-fun type_d5c6e0d9_31ba_4409_9bbf_471eaf72ff81_Class15 ( Int) Bool)
(declare-fun type_d5c6e0d9_31ba_4409_9bbf_471eaf72ff81_Class16 ( Int) Bool)
(declare-fun type_d5c6e0d9_31ba_4409_9bbf_471eaf72ff81_Class17 ( Int) Bool)
(declare-fun type_d5c6e0d9_31ba_4409_9bbf_471eaf72ff81_Class0 ( Int) Bool)
(declare-fun class3_Class3IntAttr4 ( Int) Int)
(declare-fun class3_Class3IntAttr3 ( Int) Int)
(declare-fun type_d5c6e0d9_31ba_4409_9bbf_471eaf72ff81_Class9 ( Int) Bool)
(declare-fun Cardinality ( Int) Int)
(declare-fun type_d5c6e0d9_31ba_4409_9bbf_471eaf72ff81_Class1 ( Int) Bool)
(declare-fun type_d5c6e0d9_31ba_4409_9bbf_471eaf72ff81_Class2 ( Int) Bool)
(declare-fun type_d5c6e0d9_31ba_4409_9bbf_471eaf72ff81_Class3 ( Int) Bool)
(declare-fun type_d5c6e0d9_31ba_4409_9bbf_471eaf72ff81_Class4 ( Int) Bool)
(declare-fun type_d5c6e0d9_31ba_4409_9bbf_471eaf72ff81_Class5 ( Int) Bool)
(declare-fun type_d5c6e0d9_31ba_4409_9bbf_471eaf72ff81_Class6 ( Int) Bool)
(declare-fun type_d5c6e0d9_31ba_4409_9bbf_471eaf72ff81_Class7 ( Int) Bool)
(declare-fun type_d5c6e0d9_31ba_4409_9bbf_471eaf72ff81_Class8 ( Int) Bool)
(declare-fun type_d5c6e0d9_31ba_4409_9bbf_471eaf72ff81_Class54 ( Int) Bool)
(declare-fun type_d5c6e0d9_31ba_4409_9bbf_471eaf72ff81_Class55 ( Int) Bool)
(declare-fun type_d5c6e0d9_31ba_4409_9bbf_471eaf72ff81_Class56 ( Int) Bool)
(declare-fun type_d5c6e0d9_31ba_4409_9bbf_471eaf72ff81_Class50 ( Int) Bool)
(declare-fun type_d5c6e0d9_31ba_4409_9bbf_471eaf72ff81_Class51 ( Int) Bool)
(declare-fun type_d5c6e0d9_31ba_4409_9bbf_471eaf72ff81_Class52 ( Int) Bool)
(declare-fun type_d5c6e0d9_31ba_4409_9bbf_471eaf72ff81_Class53 ( Int) Bool)
(declare-fun obj_56876296_a558_439a_b973_7939aa8b33e1 ( Int) Int)
(declare-fun oclSelect ( Int Bool) Int)
(declare-fun Enum0 ( Int) Int)
(declare-fun Enum1 ( Int) Int)
(declare-fun Enum2 ( Int) Int)
(declare-fun container_ ( Int) Int)
(declare-fun oclIncludes ( Int Int) Bool)
(declare-fun ObjAt ( Int Int) Int)

;formula(s) generated
(assert (! (forall ((c3_2 Int)(c3_1 Int)) (=> (and ( type_d5c6e0d9_31ba_4409_9bbf_471eaf72ff81_Class3 c3_1 )  ( type_d5c6e0d9_31ba_4409_9bbf_471eaf72ff81_Class3 c3_2 ) ) (not (= ( class3_Class3IntAttr3 ( obj_56876296_a558_439a_b973_7939aa8b33e1 c3_1 )  )  ( class3_Class3IntAttr4 ( obj_56876296_a558_439a_b973_7939aa8b33e1 c3_2 )  ) ) ))):named l0))
(assert (! (forall ((v Int)) (=> ( type_d5c6e0d9_31ba_4409_9bbf_471eaf72ff81_Class3 v )  (<= ( class3_Class3IntAttr4 ( obj_56876296_a558_439a_b973_7939aa8b33e1 v )  )  5))):named l1))
(assert (! (exists ((o Int)) (and (and (and (and (and (and ( type_d5c6e0d9_31ba_4409_9bbf_471eaf72ff81_Class0 ( obj_56876296_a558_439a_b973_7939aa8b33e1 o )  )  ( type_d5c6e0d9_31ba_4409_9bbf_471eaf72ff81_Class44 ( obj_56876296_a558_439a_b973_7939aa8b33e1 o )  ) ) ( type_d5c6e0d9_31ba_4409_9bbf_471eaf72ff81_Class36 ( obj_56876296_a558_439a_b973_7939aa8b33e1 o )  ) ) ( type_d5c6e0d9_31ba_4409_9bbf_471eaf72ff81_Class35 ( obj_56876296_a558_439a_b973_7939aa8b33e1 o )  ) ) ( type_d5c6e0d9_31ba_4409_9bbf_471eaf72ff81_Class27 ( obj_56876296_a558_439a_b973_7939aa8b33e1 o )  ) ) ( type_d5c6e0d9_31ba_4409_9bbf_471eaf72ff81_Class15 ( obj_56876296_a558_439a_b973_7939aa8b33e1 o )  ) ) ( type_d5c6e0d9_31ba_4409_9bbf_471eaf72ff81_Class28 ( obj_56876296_a558_439a_b973_7939aa8b33e1 o )  ) )):named c0))
(assert (! (exists ((o Int)) ( type_d5c6e0d9_31ba_4409_9bbf_471eaf72ff81_Class1 ( obj_56876296_a558_439a_b973_7939aa8b33e1 o )  ) ):named c1))
(assert (! (exists ((o Int)) (and (and ( type_d5c6e0d9_31ba_4409_9bbf_471eaf72ff81_Class10 ( obj_56876296_a558_439a_b973_7939aa8b33e1 o )  )  ( type_d5c6e0d9_31ba_4409_9bbf_471eaf72ff81_Class15 ( obj_56876296_a558_439a_b973_7939aa8b33e1 o )  ) ) ( type_d5c6e0d9_31ba_4409_9bbf_471eaf72ff81_Class21 ( obj_56876296_a558_439a_b973_7939aa8b33e1 o )  ) )):named c2))
(assert (! (exists ((o Int)) ( type_d5c6e0d9_31ba_4409_9bbf_471eaf72ff81_Class11 ( obj_56876296_a558_439a_b973_7939aa8b33e1 o )  ) ):named c3))
(assert (! (exists ((o Int)) (and (and ( type_d5c6e0d9_31ba_4409_9bbf_471eaf72ff81_Class12 ( obj_56876296_a558_439a_b973_7939aa8b33e1 o )  )  ( type_d5c6e0d9_31ba_4409_9bbf_471eaf72ff81_Class33 ( obj_56876296_a558_439a_b973_7939aa8b33e1 o )  ) ) ( type_d5c6e0d9_31ba_4409_9bbf_471eaf72ff81_Class15 ( obj_56876296_a558_439a_b973_7939aa8b33e1 o )  ) )):named c4))
(assert (! (exists ((o Int)) ( type_d5c6e0d9_31ba_4409_9bbf_471eaf72ff81_Class13 ( obj_56876296_a558_439a_b973_7939aa8b33e1 o )  ) ):named c5))
(assert (! (exists ((o Int)) (and (and (and (and (and (and ( type_d5c6e0d9_31ba_4409_9bbf_471eaf72ff81_Class14 ( obj_56876296_a558_439a_b973_7939aa8b33e1 o )  )  ( type_d5c6e0d9_31ba_4409_9bbf_471eaf72ff81_Class36 ( obj_56876296_a558_439a_b973_7939aa8b33e1 o )  ) ) ( type_d5c6e0d9_31ba_4409_9bbf_471eaf72ff81_Class35 ( obj_56876296_a558_439a_b973_7939aa8b33e1 o )  ) ) ( type_d5c6e0d9_31ba_4409_9bbf_471eaf72ff81_Class27 ( obj_56876296_a558_439a_b973_7939aa8b33e1 o )  ) ) ( type_d5c6e0d9_31ba_4409_9bbf_471eaf72ff81_Class9 ( obj_56876296_a558_439a_b973_7939aa8b33e1 o )  ) ) ( type_d5c6e0d9_31ba_4409_9bbf_471eaf72ff81_Class15 ( obj_56876296_a558_439a_b973_7939aa8b33e1 o )  ) ) ( type_d5c6e0d9_31ba_4409_9bbf_471eaf72ff81_Class28 ( obj_56876296_a558_439a_b973_7939aa8b33e1 o )  ) )):named c6))
(assert (! (exists ((o Int)) ( type_d5c6e0d9_31ba_4409_9bbf_471eaf72ff81_Class15 ( obj_56876296_a558_439a_b973_7939aa8b33e1 o )  ) ):named c7))
(assert (! (exists ((o Int)) ( type_d5c6e0d9_31ba_4409_9bbf_471eaf72ff81_Class16 ( obj_56876296_a558_439a_b973_7939aa8b33e1 o )  ) ):named c8))
(assert (! (exists ((o Int)) (and (and (and (and (and (and ( type_d5c6e0d9_31ba_4409_9bbf_471eaf72ff81_Class17 ( obj_56876296_a558_439a_b973_7939aa8b33e1 o )  )  ( type_d5c6e0d9_31ba_4409_9bbf_471eaf72ff81_Class44 ( obj_56876296_a558_439a_b973_7939aa8b33e1 o )  ) ) ( type_d5c6e0d9_31ba_4409_9bbf_471eaf72ff81_Class36 ( obj_56876296_a558_439a_b973_7939aa8b33e1 o )  ) ) ( type_d5c6e0d9_31ba_4409_9bbf_471eaf72ff81_Class35 ( obj_56876296_a558_439a_b973_7939aa8b33e1 o )  ) ) ( type_d5c6e0d9_31ba_4409_9bbf_471eaf72ff81_Class27 ( obj_56876296_a558_439a_b973_7939aa8b33e1 o )  ) ) ( type_d5c6e0d9_31ba_4409_9bbf_471eaf72ff81_Class15 ( obj_56876296_a558_439a_b973_7939aa8b33e1 o )  ) ) ( type_d5c6e0d9_31ba_4409_9bbf_471eaf72ff81_Class28 ( obj_56876296_a558_439a_b973_7939aa8b33e1 o )  ) )):named c9))
(assert (! (exists ((o Int)) ( type_d5c6e0d9_31ba_4409_9bbf_471eaf72ff81_Class18 ( obj_56876296_a558_439a_b973_7939aa8b33e1 o )  ) ):named c10))
(assert (! (exists ((o Int)) (and (and (and (and (and (and ( type_d5c6e0d9_31ba_4409_9bbf_471eaf72ff81_Class19 ( obj_56876296_a558_439a_b973_7939aa8b33e1 o )  )  ( type_d5c6e0d9_31ba_4409_9bbf_471eaf72ff81_Class36 ( obj_56876296_a558_439a_b973_7939aa8b33e1 o )  ) ) ( type_d5c6e0d9_31ba_4409_9bbf_471eaf72ff81_Class35 ( obj_56876296_a558_439a_b973_7939aa8b33e1 o )  ) ) ( type_d5c6e0d9_31ba_4409_9bbf_471eaf72ff81_Class27 ( obj_56876296_a558_439a_b973_7939aa8b33e1 o )  ) ) ( type_d5c6e0d9_31ba_4409_9bbf_471eaf72ff81_Class9 ( obj_56876296_a558_439a_b973_7939aa8b33e1 o )  ) ) ( type_d5c6e0d9_31ba_4409_9bbf_471eaf72ff81_Class15 ( obj_56876296_a558_439a_b973_7939aa8b33e1 o )  ) ) ( type_d5c6e0d9_31ba_4409_9bbf_471eaf72ff81_Class28 ( obj_56876296_a558_439a_b973_7939aa8b33e1 o )  ) )):named c11))
(assert (! (exists ((o Int)) (and (and (and (and (and (and ( type_d5c6e0d9_31ba_4409_9bbf_471eaf72ff81_Class2 ( obj_56876296_a558_439a_b973_7939aa8b33e1 o )  )  ( type_d5c6e0d9_31ba_4409_9bbf_471eaf72ff81_Class36 ( obj_56876296_a558_439a_b973_7939aa8b33e1 o )  ) ) ( type_d5c6e0d9_31ba_4409_9bbf_471eaf72ff81_Class35 ( obj_56876296_a558_439a_b973_7939aa8b33e1 o )  ) ) ( type_d5c6e0d9_31ba_4409_9bbf_471eaf72ff81_Class27 ( obj_56876296_a558_439a_b973_7939aa8b33e1 o )  ) ) ( type_d5c6e0d9_31ba_4409_9bbf_471eaf72ff81_Class15 ( obj_56876296_a558_439a_b973_7939aa8b33e1 o )  ) ) ( type_d5c6e0d9_31ba_4409_9bbf_471eaf72ff81_Class28 ( obj_56876296_a558_439a_b973_7939aa8b33e1 o )  ) ) ( type_d5c6e0d9_31ba_4409_9bbf_471eaf72ff81_Class54 ( obj_56876296_a558_439a_b973_7939aa8b33e1 o )  ) )):named c12))
(assert (! (exists ((o Int)) (and ( type_d5c6e0d9_31ba_4409_9bbf_471eaf72ff81_Class20 ( obj_56876296_a558_439a_b973_7939aa8b33e1 o )  )  ( type_d5c6e0d9_31ba_4409_9bbf_471eaf72ff81_Class15 ( obj_56876296_a558_439a_b973_7939aa8b33e1 o )  ) )):named c13))
(assert (! (exists ((o Int)) (and ( type_d5c6e0d9_31ba_4409_9bbf_471eaf72ff81_Class21 ( obj_56876296_a558_439a_b973_7939aa8b33e1 o )  )  ( type_d5c6e0d9_31ba_4409_9bbf_471eaf72ff81_Class15 ( obj_56876296_a558_439a_b973_7939aa8b33e1 o )  ) )):named c14))
(assert (! (exists ((o Int)) (and (and (and ( type_d5c6e0d9_31ba_4409_9bbf_471eaf72ff81_Class22 ( obj_56876296_a558_439a_b973_7939aa8b33e1 o )  )  ( type_d5c6e0d9_31ba_4409_9bbf_471eaf72ff81_Class15 ( obj_56876296_a558_439a_b973_7939aa8b33e1 o )  ) ) ( type_d5c6e0d9_31ba_4409_9bbf_471eaf72ff81_Class48 ( obj_56876296_a558_439a_b973_7939aa8b33e1 o )  ) ) ( type_d5c6e0d9_31ba_4409_9bbf_471eaf72ff81_Class43 ( obj_56876296_a558_439a_b973_7939aa8b33e1 o )  ) )):named c15))
(assert (! (exists ((o Int)) ( type_d5c6e0d9_31ba_4409_9bbf_471eaf72ff81_Class23 ( obj_56876296_a558_439a_b973_7939aa8b33e1 o )  ) ):named c16))
(assert (! (exists ((o Int)) ( type_d5c6e0d9_31ba_4409_9bbf_471eaf72ff81_Class24 ( obj_56876296_a558_439a_b973_7939aa8b33e1 o )  ) ):named c17))
(assert (! (exists ((o Int)) (and (and (and ( type_d5c6e0d9_31ba_4409_9bbf_471eaf72ff81_Class25 ( obj_56876296_a558_439a_b973_7939aa8b33e1 o )  )  ( type_d5c6e0d9_31ba_4409_9bbf_471eaf72ff81_Class12 ( obj_56876296_a558_439a_b973_7939aa8b33e1 o )  ) ) ( type_d5c6e0d9_31ba_4409_9bbf_471eaf72ff81_Class33 ( obj_56876296_a558_439a_b973_7939aa8b33e1 o )  ) ) ( type_d5c6e0d9_31ba_4409_9bbf_471eaf72ff81_Class15 ( obj_56876296_a558_439a_b973_7939aa8b33e1 o )  ) )):named c18))
(assert (! (exists ((o Int)) ( type_d5c6e0d9_31ba_4409_9bbf_471eaf72ff81_Class26 ( obj_56876296_a558_439a_b973_7939aa8b33e1 o )  ) ):named c19))
(assert (! (exists ((o Int)) (and ( type_d5c6e0d9_31ba_4409_9bbf_471eaf72ff81_Class27 ( obj_56876296_a558_439a_b973_7939aa8b33e1 o )  )  ( type_d5c6e0d9_31ba_4409_9bbf_471eaf72ff81_Class15 ( obj_56876296_a558_439a_b973_7939aa8b33e1 o )  ) )):named c20))
(assert (! (exists ((o Int)) (and (and ( type_d5c6e0d9_31ba_4409_9bbf_471eaf72ff81_Class28 ( obj_56876296_a558_439a_b973_7939aa8b33e1 o )  )  ( type_d5c6e0d9_31ba_4409_9bbf_471eaf72ff81_Class27 ( obj_56876296_a558_439a_b973_7939aa8b33e1 o )  ) ) ( type_d5c6e0d9_31ba_4409_9bbf_471eaf72ff81_Class15 ( obj_56876296_a558_439a_b973_7939aa8b33e1 o )  ) )):named c21))
(assert (! (exists ((o Int)) (and (and (and (and (and ( type_d5c6e0d9_31ba_4409_9bbf_471eaf72ff81_Class29 ( obj_56876296_a558_439a_b973_7939aa8b33e1 o )  )  ( type_d5c6e0d9_31ba_4409_9bbf_471eaf72ff81_Class36 ( obj_56876296_a558_439a_b973_7939aa8b33e1 o )  ) ) ( type_d5c6e0d9_31ba_4409_9bbf_471eaf72ff81_Class35 ( obj_56876296_a558_439a_b973_7939aa8b33e1 o )  ) ) ( type_d5c6e0d9_31ba_4409_9bbf_471eaf72ff81_Class27 ( obj_56876296_a558_439a_b973_7939aa8b33e1 o )  ) ) ( type_d5c6e0d9_31ba_4409_9bbf_471eaf72ff81_Class15 ( obj_56876296_a558_439a_b973_7939aa8b33e1 o )  ) ) ( type_d5c6e0d9_31ba_4409_9bbf_471eaf72ff81_Class28 ( obj_56876296_a558_439a_b973_7939aa8b33e1 o )  ) )):named c22))
(assert (! (exists ((o Int)) ( type_d5c6e0d9_31ba_4409_9bbf_471eaf72ff81_Class3 ( obj_56876296_a558_439a_b973_7939aa8b33e1 o )  ) ):named c23))
(assert (! (exists ((o Int)) (and (and ( type_d5c6e0d9_31ba_4409_9bbf_471eaf72ff81_Class30 ( obj_56876296_a558_439a_b973_7939aa8b33e1 o )  )  ( type_d5c6e0d9_31ba_4409_9bbf_471eaf72ff81_Class33 ( obj_56876296_a558_439a_b973_7939aa8b33e1 o )  ) ) ( type_d5c6e0d9_31ba_4409_9bbf_471eaf72ff81_Class15 ( obj_56876296_a558_439a_b973_7939aa8b33e1 o )  ) )):named c24))
(assert (! (exists ((o Int)) (and (and (and (and (and (and ( type_d5c6e0d9_31ba_4409_9bbf_471eaf72ff81_Class31 ( obj_56876296_a558_439a_b973_7939aa8b33e1 o )  )  ( type_d5c6e0d9_31ba_4409_9bbf_471eaf72ff81_Class36 ( obj_56876296_a558_439a_b973_7939aa8b33e1 o )  ) ) ( type_d5c6e0d9_31ba_4409_9bbf_471eaf72ff81_Class35 ( obj_56876296_a558_439a_b973_7939aa8b33e1 o )  ) ) ( type_d5c6e0d9_31ba_4409_9bbf_471eaf72ff81_Class27 ( obj_56876296_a558_439a_b973_7939aa8b33e1 o )  ) ) ( type_d5c6e0d9_31ba_4409_9bbf_471eaf72ff81_Class15 ( obj_56876296_a558_439a_b973_7939aa8b33e1 o )  ) ) ( type_d5c6e0d9_31ba_4409_9bbf_471eaf72ff81_Class28 ( obj_56876296_a558_439a_b973_7939aa8b33e1 o )  ) ) ( type_d5c6e0d9_31ba_4409_9bbf_471eaf72ff81_Class54 ( obj_56876296_a558_439a_b973_7939aa8b33e1 o )  ) )):named c25))
(assert (! (exists ((o Int)) ( type_d5c6e0d9_31ba_4409_9bbf_471eaf72ff81_Class32 ( obj_56876296_a558_439a_b973_7939aa8b33e1 o )  ) ):named c26))
(assert (! (exists ((o Int)) (and ( type_d5c6e0d9_31ba_4409_9bbf_471eaf72ff81_Class33 ( obj_56876296_a558_439a_b973_7939aa8b33e1 o )  )  ( type_d5c6e0d9_31ba_4409_9bbf_471eaf72ff81_Class15 ( obj_56876296_a558_439a_b973_7939aa8b33e1 o )  ) )):named c27))
(assert (! (exists ((o Int)) ( type_d5c6e0d9_31ba_4409_9bbf_471eaf72ff81_Class34 ( obj_56876296_a558_439a_b973_7939aa8b33e1 o )  ) ):named c28))
(assert (! (exists ((o Int)) (and (and (and (and ( type_d5c6e0d9_31ba_4409_9bbf_471eaf72ff81_Class35 ( obj_56876296_a558_439a_b973_7939aa8b33e1 o )  )  ( type_d5c6e0d9_31ba_4409_9bbf_471eaf72ff81_Class36 ( obj_56876296_a558_439a_b973_7939aa8b33e1 o )  ) ) ( type_d5c6e0d9_31ba_4409_9bbf_471eaf72ff81_Class27 ( obj_56876296_a558_439a_b973_7939aa8b33e1 o )  ) ) ( type_d5c6e0d9_31ba_4409_9bbf_471eaf72ff81_Class15 ( obj_56876296_a558_439a_b973_7939aa8b33e1 o )  ) ) ( type_d5c6e0d9_31ba_4409_9bbf_471eaf72ff81_Class28 ( obj_56876296_a558_439a_b973_7939aa8b33e1 o )  ) )):named c29))
(assert (! (exists ((o Int)) (and (and (and ( type_d5c6e0d9_31ba_4409_9bbf_471eaf72ff81_Class36 ( obj_56876296_a558_439a_b973_7939aa8b33e1 o )  )  ( type_d5c6e0d9_31ba_4409_9bbf_471eaf72ff81_Class27 ( obj_56876296_a558_439a_b973_7939aa8b33e1 o )  ) ) ( type_d5c6e0d9_31ba_4409_9bbf_471eaf72ff81_Class15 ( obj_56876296_a558_439a_b973_7939aa8b33e1 o )  ) ) ( type_d5c6e0d9_31ba_4409_9bbf_471eaf72ff81_Class28 ( obj_56876296_a558_439a_b973_7939aa8b33e1 o )  ) )):named c30))
(assert (! (exists ((o Int)) (and ( type_d5c6e0d9_31ba_4409_9bbf_471eaf72ff81_Class37 ( obj_56876296_a558_439a_b973_7939aa8b33e1 o )  )  ( type_d5c6e0d9_31ba_4409_9bbf_471eaf72ff81_Class15 ( obj_56876296_a558_439a_b973_7939aa8b33e1 o )  ) )):named c31))
(assert (! (exists ((o Int)) (and (and (and (and ( type_d5c6e0d9_31ba_4409_9bbf_471eaf72ff81_Class38 ( obj_56876296_a558_439a_b973_7939aa8b33e1 o )  )  ( type_d5c6e0d9_31ba_4409_9bbf_471eaf72ff81_Class22 ( obj_56876296_a558_439a_b973_7939aa8b33e1 o )  ) ) ( type_d5c6e0d9_31ba_4409_9bbf_471eaf72ff81_Class15 ( obj_56876296_a558_439a_b973_7939aa8b33e1 o )  ) ) ( type_d5c6e0d9_31ba_4409_9bbf_471eaf72ff81_Class48 ( obj_56876296_a558_439a_b973_7939aa8b33e1 o )  ) ) ( type_d5c6e0d9_31ba_4409_9bbf_471eaf72ff81_Class43 ( obj_56876296_a558_439a_b973_7939aa8b33e1 o )  ) )):named c32))
(assert (! (exists ((o Int)) ( type_d5c6e0d9_31ba_4409_9bbf_471eaf72ff81_Class39 ( obj_56876296_a558_439a_b973_7939aa8b33e1 o )  ) ):named c33))
(assert (! (exists ((o Int)) (and (and (and (and (and (and ( type_d5c6e0d9_31ba_4409_9bbf_471eaf72ff81_Class4 ( obj_56876296_a558_439a_b973_7939aa8b33e1 o )  )  ( type_d5c6e0d9_31ba_4409_9bbf_471eaf72ff81_Class44 ( obj_56876296_a558_439a_b973_7939aa8b33e1 o )  ) ) ( type_d5c6e0d9_31ba_4409_9bbf_471eaf72ff81_Class36 ( obj_56876296_a558_439a_b973_7939aa8b33e1 o )  ) ) ( type_d5c6e0d9_31ba_4409_9bbf_471eaf72ff81_Class35 ( obj_56876296_a558_439a_b973_7939aa8b33e1 o )  ) ) ( type_d5c6e0d9_31ba_4409_9bbf_471eaf72ff81_Class27 ( obj_56876296_a558_439a_b973_7939aa8b33e1 o )  ) ) ( type_d5c6e0d9_31ba_4409_9bbf_471eaf72ff81_Class15 ( obj_56876296_a558_439a_b973_7939aa8b33e1 o )  ) ) ( type_d5c6e0d9_31ba_4409_9bbf_471eaf72ff81_Class28 ( obj_56876296_a558_439a_b973_7939aa8b33e1 o )  ) )):named c34))
(assert (! (exists ((o Int)) ( type_d5c6e0d9_31ba_4409_9bbf_471eaf72ff81_Class40 ( obj_56876296_a558_439a_b973_7939aa8b33e1 o )  ) ):named c35))
(assert (! (exists ((o Int)) ( type_d5c6e0d9_31ba_4409_9bbf_471eaf72ff81_Class41 ( obj_56876296_a558_439a_b973_7939aa8b33e1 o )  ) ):named c36))
(assert (! (exists ((o Int)) ( type_d5c6e0d9_31ba_4409_9bbf_471eaf72ff81_Class42 ( obj_56876296_a558_439a_b973_7939aa8b33e1 o )  ) ):named c37))
(assert (! (exists ((o Int)) (and ( type_d5c6e0d9_31ba_4409_9bbf_471eaf72ff81_Class43 ( obj_56876296_a558_439a_b973_7939aa8b33e1 o )  )  ( type_d5c6e0d9_31ba_4409_9bbf_471eaf72ff81_Class15 ( obj_56876296_a558_439a_b973_7939aa8b33e1 o )  ) )):named c38))
(assert (! (exists ((o Int)) (and (and (and (and (and ( type_d5c6e0d9_31ba_4409_9bbf_471eaf72ff81_Class44 ( obj_56876296_a558_439a_b973_7939aa8b33e1 o )  )  ( type_d5c6e0d9_31ba_4409_9bbf_471eaf72ff81_Class36 ( obj_56876296_a558_439a_b973_7939aa8b33e1 o )  ) ) ( type_d5c6e0d9_31ba_4409_9bbf_471eaf72ff81_Class35 ( obj_56876296_a558_439a_b973_7939aa8b33e1 o )  ) ) ( type_d5c6e0d9_31ba_4409_9bbf_471eaf72ff81_Class27 ( obj_56876296_a558_439a_b973_7939aa8b33e1 o )  ) ) ( type_d5c6e0d9_31ba_4409_9bbf_471eaf72ff81_Class15 ( obj_56876296_a558_439a_b973_7939aa8b33e1 o )  ) ) ( type_d5c6e0d9_31ba_4409_9bbf_471eaf72ff81_Class28 ( obj_56876296_a558_439a_b973_7939aa8b33e1 o )  ) )):named c39))
(assert (! (exists ((o Int)) (and (and (and (and (and (and ( type_d5c6e0d9_31ba_4409_9bbf_471eaf72ff81_Class45 ( obj_56876296_a558_439a_b973_7939aa8b33e1 o )  )  ( type_d5c6e0d9_31ba_4409_9bbf_471eaf72ff81_Class36 ( obj_56876296_a558_439a_b973_7939aa8b33e1 o )  ) ) ( type_d5c6e0d9_31ba_4409_9bbf_471eaf72ff81_Class35 ( obj_56876296_a558_439a_b973_7939aa8b33e1 o )  ) ) ( type_d5c6e0d9_31ba_4409_9bbf_471eaf72ff81_Class27 ( obj_56876296_a558_439a_b973_7939aa8b33e1 o )  ) ) ( type_d5c6e0d9_31ba_4409_9bbf_471eaf72ff81_Class9 ( obj_56876296_a558_439a_b973_7939aa8b33e1 o )  ) ) ( type_d5c6e0d9_31ba_4409_9bbf_471eaf72ff81_Class15 ( obj_56876296_a558_439a_b973_7939aa8b33e1 o )  ) ) ( type_d5c6e0d9_31ba_4409_9bbf_471eaf72ff81_Class28 ( obj_56876296_a558_439a_b973_7939aa8b33e1 o )  ) )):named c40))
(assert (! (exists ((o Int)) (and (and ( type_d5c6e0d9_31ba_4409_9bbf_471eaf72ff81_Class46 ( obj_56876296_a558_439a_b973_7939aa8b33e1 o )  )  ( type_d5c6e0d9_31ba_4409_9bbf_471eaf72ff81_Class15 ( obj_56876296_a558_439a_b973_7939aa8b33e1 o )  ) ) ( type_d5c6e0d9_31ba_4409_9bbf_471eaf72ff81_Class5 ( obj_56876296_a558_439a_b973_7939aa8b33e1 o )  ) )):named c41))
(assert (! (exists ((o Int)) ( type_d5c6e0d9_31ba_4409_9bbf_471eaf72ff81_Class47 ( obj_56876296_a558_439a_b973_7939aa8b33e1 o )  ) ):named c42))
(assert (! (exists ((o Int)) (and ( type_d5c6e0d9_31ba_4409_9bbf_471eaf72ff81_Class48 ( obj_56876296_a558_439a_b973_7939aa8b33e1 o )  )  ( type_d5c6e0d9_31ba_4409_9bbf_471eaf72ff81_Class15 ( obj_56876296_a558_439a_b973_7939aa8b33e1 o )  ) )):named c43))
(assert (! (exists ((o Int)) ( type_d5c6e0d9_31ba_4409_9bbf_471eaf72ff81_Class49 ( obj_56876296_a558_439a_b973_7939aa8b33e1 o )  ) ):named c44))
(assert (! (exists ((o Int)) (and ( type_d5c6e0d9_31ba_4409_9bbf_471eaf72ff81_Class5 ( obj_56876296_a558_439a_b973_7939aa8b33e1 o )  )  ( type_d5c6e0d9_31ba_4409_9bbf_471eaf72ff81_Class15 ( obj_56876296_a558_439a_b973_7939aa8b33e1 o )  ) )):named c45))
(assert (! (exists ((o Int)) ( type_d5c6e0d9_31ba_4409_9bbf_471eaf72ff81_Class50 ( obj_56876296_a558_439a_b973_7939aa8b33e1 o )  ) ):named c46))
(assert (! (exists ((o Int)) ( type_d5c6e0d9_31ba_4409_9bbf_471eaf72ff81_Class51 ( obj_56876296_a558_439a_b973_7939aa8b33e1 o )  ) ):named c47))
(assert (! (exists ((o Int)) ( type_d5c6e0d9_31ba_4409_9bbf_471eaf72ff81_Class52 ( obj_56876296_a558_439a_b973_7939aa8b33e1 o )  ) ):named c48))
(assert (! (exists ((o Int)) ( type_d5c6e0d9_31ba_4409_9bbf_471eaf72ff81_Class53 ( obj_56876296_a558_439a_b973_7939aa8b33e1 o )  ) ):named c49))
(assert (! (exists ((o Int)) (and (and (and (and (and ( type_d5c6e0d9_31ba_4409_9bbf_471eaf72ff81_Class54 ( obj_56876296_a558_439a_b973_7939aa8b33e1 o )  )  ( type_d5c6e0d9_31ba_4409_9bbf_471eaf72ff81_Class36 ( obj_56876296_a558_439a_b973_7939aa8b33e1 o )  ) ) ( type_d5c6e0d9_31ba_4409_9bbf_471eaf72ff81_Class35 ( obj_56876296_a558_439a_b973_7939aa8b33e1 o )  ) ) ( type_d5c6e0d9_31ba_4409_9bbf_471eaf72ff81_Class27 ( obj_56876296_a558_439a_b973_7939aa8b33e1 o )  ) ) ( type_d5c6e0d9_31ba_4409_9bbf_471eaf72ff81_Class15 ( obj_56876296_a558_439a_b973_7939aa8b33e1 o )  ) ) ( type_d5c6e0d9_31ba_4409_9bbf_471eaf72ff81_Class28 ( obj_56876296_a558_439a_b973_7939aa8b33e1 o )  ) )):named c50))
(assert (! (exists ((o Int)) ( type_d5c6e0d9_31ba_4409_9bbf_471eaf72ff81_Class55 ( obj_56876296_a558_439a_b973_7939aa8b33e1 o )  ) ):named c51))
(assert (! (exists ((o Int)) ( type_d5c6e0d9_31ba_4409_9bbf_471eaf72ff81_Class56 ( obj_56876296_a558_439a_b973_7939aa8b33e1 o )  ) ):named c52))
(assert (! (exists ((o Int)) (and (and (and (and ( type_d5c6e0d9_31ba_4409_9bbf_471eaf72ff81_Class6 ( obj_56876296_a558_439a_b973_7939aa8b33e1 o )  )  ( type_d5c6e0d9_31ba_4409_9bbf_471eaf72ff81_Class22 ( obj_56876296_a558_439a_b973_7939aa8b33e1 o )  ) ) ( type_d5c6e0d9_31ba_4409_9bbf_471eaf72ff81_Class15 ( obj_56876296_a558_439a_b973_7939aa8b33e1 o )  ) ) ( type_d5c6e0d9_31ba_4409_9bbf_471eaf72ff81_Class48 ( obj_56876296_a558_439a_b973_7939aa8b33e1 o )  ) ) ( type_d5c6e0d9_31ba_4409_9bbf_471eaf72ff81_Class43 ( obj_56876296_a558_439a_b973_7939aa8b33e1 o )  ) )):named c53))
(assert (! (exists ((o Int)) ( type_d5c6e0d9_31ba_4409_9bbf_471eaf72ff81_Class7 ( obj_56876296_a558_439a_b973_7939aa8b33e1 o )  ) ):named c54))
(assert (! (exists ((o Int)) ( type_d5c6e0d9_31ba_4409_9bbf_471eaf72ff81_Class8 ( obj_56876296_a558_439a_b973_7939aa8b33e1 o )  ) ):named c55))
(assert (! (exists ((o Int)) (and (and (and (and (and ( type_d5c6e0d9_31ba_4409_9bbf_471eaf72ff81_Class9 ( obj_56876296_a558_439a_b973_7939aa8b33e1 o )  )  ( type_d5c6e0d9_31ba_4409_9bbf_471eaf72ff81_Class36 ( obj_56876296_a558_439a_b973_7939aa8b33e1 o )  ) ) ( type_d5c6e0d9_31ba_4409_9bbf_471eaf72ff81_Class35 ( obj_56876296_a558_439a_b973_7939aa8b33e1 o )  ) ) ( type_d5c6e0d9_31ba_4409_9bbf_471eaf72ff81_Class27 ( obj_56876296_a558_439a_b973_7939aa8b33e1 o )  ) ) ( type_d5c6e0d9_31ba_4409_9bbf_471eaf72ff81_Class15 ( obj_56876296_a558_439a_b973_7939aa8b33e1 o )  ) ) ( type_d5c6e0d9_31ba_4409_9bbf_471eaf72ff81_Class28 ( obj_56876296_a558_439a_b973_7939aa8b33e1 o )  ) )):named c56))

 ;end of formula 